786
1   1   0    134  0 35 14 19 54 13 4 75 0
1   2   0    136  0 39 25 55 31 10 65 38 7 0
1   3   0    0    0 0
2   1   0    0    0 0
2   2   0    122  0 21 61 69 71 60 70 20 15 57 0
2   3   0    86   0 48 47 36 37 5 0
3   1   0    120  0 59 66 11 53 0
3   2   0    0    0 0
3   3   0    108  0 8 52 27 45 29 30 0
4   1   0    52   0 44 18 50 0
4   2   0    128  0 40 12 58 72 9 32 0
4   3   0    114  0 17 67 34 46 26 0
5   1   0    98   0 64 42 41 56 43 0
5   2   0    129  0 22 28 74 2 68 6 51 63 0
5   3   0    137  0 23 49 24 3 16 33 73 62 1 0